WARNING: for repeatability, setting FPU to use double precision
============================[ Problem Statistics ]=============================
|                                                                             |
|  Number of variables:            50                                         |
|  Number of clauses:             218                                         |
|  Parse time:                   0.00 s                                       |
|                                                                             |
============================[ Search Statistics ]==============================
| Conflicts |          ORIGINAL         |          LEARNT          | Progress |
|           |    Vars  Clauses Literals |    Limit  Clauses Lit/Cl |          |
===============================================================================
===============================================================================
restarts              : 1
conflicts             : 73             (47280 /sec)
decisions             : 92             (0.00 % random) (59585 /sec)
propagations          : 1125           (728627 /sec)
conflict literals     : 301            (17.53 % deleted)
Memory used           : 20.00 MB
CPU time              : 0.001544 s

SATISFIABLE
